c 0.003913164138793945 (encode time in sec)
p cnf 180 332
1 2 3 4 16 0
1 2 3 -4 15 0
1 2 -3 4 6 0
1 2 -3 -4 5 0
1 -2 3 4 7 0
1 -2 3 -4 8 0
1 -2 -3 4 9 0
1 -2 -3 -4 10 0
-1 2 3 4 11 0
-1 2 3 -4 12 0
-1 2 -3 4 14 0
-1 2 -3 -4 13 0
-1 -2 3 4 0
-1 -2 3 -4 0
-1 -2 -3 4 0
-1 -2 -3 -4 0
17 1 2 3 4 18 0
17 1 2 3 -4 34 0
17 1 2 -3 4 33 0
17 1 2 -3 -4 19 0
17 1 -2 3 4 20 0
17 1 -2 3 -4 21 0
17 1 -2 -3 4 22 0
17 1 -2 -3 -4 23 0
17 -1 2 3 4 24 0
17 -1 2 3 -4 25 0
17 -1 2 -3 4 26 0
17 -1 2 -3 -4 40 0
-17 1 2 3 4 27 0
-17 1 2 3 -4 35 0
-17 1 2 -3 4 28 0
-17 1 2 -3 -4 38 0
-17 1 -2 3 4 29 0
-17 1 -2 3 -4 36 0
-17 1 -2 -3 4 31 0
-17 1 -2 -3 -4 32 0
-17 -1 2 3 4 30 0
-17 -1 2 3 -4 39 0
-17 -1 2 -3 4 37 0
-17 -1 2 -3 -4 41 0
42 43 44 45 17 1 2 3 4 87 0
42 43 44 45 17 1 2 3 -4 72 0
42 43 44 45 17 1 2 -3 4 105 0
42 43 44 45 17 1 2 -3 -4 176 0
42 43 44 45 17 1 -2 3 4 169 0
42 43 44 45 17 1 -2 3 -4 46 0
42 43 44 45 17 1 -2 -3 4 145 0
42 43 44 45 17 1 -2 -3 -4 138 0
42 43 44 45 17 -1 2 3 4 147 0
42 43 44 45 17 -1 2 3 -4 68 0
42 43 44 45 17 -1 2 -3 4 159 0
42 43 44 45 17 -1 2 -3 -4 130 0
42 43 44 45 -17 1 2 3 4 109 0
42 43 44 45 -17 1 2 3 -4 76 0
42 43 44 45 -17 1 2 -3 4 129 0
42 43 44 45 -17 1 2 -3 -4 137 0
42 43 44 45 -17 1 -2 3 4 85 0
42 43 44 45 -17 1 -2 3 -4 96 0
42 43 44 45 -17 1 -2 -3 4 71 0
42 43 44 45 -17 1 -2 -3 -4 122 0
42 43 44 45 -17 -1 2 3 4 111 0
42 43 44 45 -17 -1 2 3 -4 58 0
42 43 44 45 -17 -1 2 -3 4 131 0
42 43 44 45 -17 -1 2 -3 -4 90 0
42 43 44 -45 17 1 2 3 4 47 0
42 43 44 -45 17 1 2 3 -4 148 0
42 43 44 -45 17 1 2 -3 4 48 0
42 43 44 -45 17 1 2 -3 -4 113 0
42 43 44 -45 17 1 -2 3 4 77 0
42 43 44 -45 17 1 -2 3 -4 149 0
42 43 44 -45 17 1 -2 -3 4 153 0
42 43 44 -45 17 1 -2 -3 -4 54 0
42 43 44 -45 17 -1 2 3 4 78 0
42 43 44 -45 17 -1 2 3 -4 106 0
42 43 44 -45 17 -1 2 -3 4 97 0
42 43 44 -45 17 -1 2 -3 -4 130 0
42 43 44 -45 -17 1 2 3 4 170 0
42 43 44 -45 -17 1 2 3 -4 150 0
42 43 44 -45 -17 1 2 -3 4 140 0
42 43 44 -45 -17 1 2 -3 -4 177 0
42 43 44 -45 -17 1 -2 3 4 60 0
42 43 44 -45 -17 1 -2 3 -4 141 0
42 43 44 -45 -17 1 -2 -3 4 98 0
42 43 44 -45 -17 1 -2 -3 -4 65 0
42 43 44 -45 -17 -1 2 3 4 107 0
42 43 44 -45 -17 -1 2 3 -4 58 0
42 43 44 -45 -17 -1 2 -3 4 131 0
42 43 44 -45 -17 -1 2 -3 -4 90 0
42 43 -44 45 17 1 2 3 4 87 0
42 43 -44 45 17 1 2 3 -4 99 0
42 43 -44 45 17 1 2 -3 4 49 0
42 43 -44 45 17 1 2 -3 -4 110 0
42 43 -44 45 17 1 -2 3 4 117 0
42 43 -44 45 17 1 -2 3 -4 80 0
42 43 -44 45 17 1 -2 -3 4 50 0
42 43 -44 45 17 1 -2 -3 -4 114 0
42 43 -44 45 17 -1 2 3 4 55 0
42 43 -44 45 17 -1 2 3 -4 154 0
42 43 -44 45 17 -1 2 -3 4 120 0
42 43 -44 45 17 -1 2 -3 -4 155 0
42 43 -44 45 -17 1 2 3 4 84 0
42 43 -44 45 -17 1 2 3 -4 115 0
42 43 -44 45 -17 1 2 -3 4 118 0
42 43 -44 45 -17 1 2 -3 -4 51 0
42 43 -44 45 -17 1 -2 3 4 121 0
42 43 -44 45 -17 1 -2 3 -4 116 0
42 43 -44 45 -17 1 -2 -3 4 151 0
42 43 -44 45 -17 1 -2 -3 -4 83 0
42 43 -44 45 -17 -1 2 3 4 70 0
42 43 -44 45 -17 -1 2 3 -4 81 0
42 43 -44 45 -17 -1 2 -3 4 131 0
42 43 -44 45 -17 -1 2 -3 -4 90 0
42 43 -44 -45 17 1 2 3 4 87 0
42 43 -44 -45 17 1 2 3 -4 99 0
42 43 -44 -45 17 1 2 -3 4 48 0
42 43 -44 -45 17 1 2 -3 -4 156 0
42 43 -44 -45 17 1 -2 3 4 100 0
42 43 -44 -45 17 1 -2 3 -4 171 0
42 43 -44 -45 17 1 -2 -3 4 132 0
42 43 -44 -45 17 1 -2 -3 -4 119 0
42 43 -44 -45 17 -1 2 3 4 180 0
42 43 -44 -45 17 -1 2 3 -4 79 0
42 43 -44 -45 17 -1 2 -3 4 52 0
42 43 -44 -45 17 -1 2 -3 -4 155 0
42 43 -44 -45 -17 1 2 3 4 84 0
42 43 -44 -45 -17 1 2 3 -4 152 0
42 43 -44 -45 -17 1 2 -3 4 53 0
42 43 -44 -45 -17 1 2 -3 -4 82 0
42 43 -44 -45 -17 1 -2 3 4 89 0
42 43 -44 -45 -17 1 -2 3 -4 142 0
42 43 -44 -45 -17 1 -2 -3 4 160 0
42 43 -44 -45 -17 1 -2 -3 -4 128 0
42 43 -44 -45 -17 -1 2 3 4 56 0
42 43 -44 -45 -17 -1 2 3 -4 81 0
42 43 -44 -45 -17 -1 2 -3 4 75 0
42 43 -44 -45 -17 -1 2 -3 -4 90 0
42 -43 44 45 17 1 2 3 4 87 0
42 -43 44 45 17 1 2 3 -4 143 0
42 -43 44 45 17 1 2 -3 4 88 0
42 -43 44 45 17 1 2 -3 -4 112 0
42 -43 44 45 17 1 -2 3 4 133 0
42 -43 44 45 17 1 -2 3 -4 168 0
42 -43 44 45 17 1 -2 -3 4 157 0
42 -43 44 45 17 1 -2 -3 -4 125 0
42 -43 44 45 17 -1 2 3 4 61 0
42 -43 44 45 17 -1 2 3 -4 63 0
42 -43 44 45 17 -1 2 -3 4 159 0
42 -43 44 45 17 -1 2 -3 -4 130 0
42 -43 44 45 -17 1 2 3 4 134 0
42 -43 44 45 -17 1 2 3 -4 86 0
42 -43 44 45 -17 1 2 -3 4 62 0
42 -43 44 45 -17 1 2 -3 -4 66 0
42 -43 44 45 -17 1 -2 3 4 101 0
42 -43 44 45 -17 1 -2 3 -4 172 0
42 -43 44 45 -17 1 -2 -3 4 73 0
42 -43 44 45 -17 1 -2 -3 -4 94 0
42 -43 44 45 -17 -1 2 3 4 166 0
42 -43 44 45 -17 -1 2 3 -4 58 0
42 -43 44 45 -17 -1 2 -3 4 131 0
42 -43 44 45 -17 -1 2 -3 -4 90 0
42 -43 44 -45 17 1 2 3 4 87 0
42 -43 44 -45 17 1 2 3 -4 72 0
42 -43 44 -45 17 1 2 -3 4 88 0
42 -43 44 -45 17 1 2 -3 -4 112 0
42 -43 44 -45 17 1 -2 3 4 175 0
42 -43 44 -45 17 1 -2 3 -4 95 0
42 -43 44 -45 17 1 -2 -3 4 165 0
42 -43 44 -45 17 1 -2 -3 -4 179 0
42 -43 44 -45 17 -1 2 3 4 174 0
42 -43 44 -45 17 -1 2 3 -4 144 0
42 -43 44 -45 17 -1 2 -3 4 126 0
42 -43 44 -45 17 -1 2 -3 -4 130 0
42 -43 44 -45 -17 1 2 3 4 91 0
42 -43 44 -45 -17 1 2 3 -4 161 0
42 -43 44 -45 -17 1 2 -3 4 102 0
42 -43 44 -45 -17 1 2 -3 -4 146 0
42 -43 44 -45 -17 1 -2 3 4 103 0
42 -43 44 -45 -17 1 -2 3 -4 135 0
42 -43 44 -45 -17 1 -2 -3 4 92 0
42 -43 44 -45 -17 1 -2 -3 -4 178 0
42 -43 44 -45 -17 -1 2 3 4 107 0
42 -43 44 -45 -17 -1 2 3 -4 67 0
42 -43 44 -45 -17 -1 2 -3 4 131 0
42 -43 44 -45 -17 -1 2 -3 -4 90 0
42 -43 -44 45 17 1 2 3 4 87 0
42 -43 -44 45 17 1 2 3 -4 72 0
42 -43 -44 45 17 1 2 -3 4 88 0
42 -43 -44 45 17 1 2 -3 -4 112 0
42 -43 -44 45 17 1 -2 3 4 175 0
42 -43 -44 45 17 1 -2 3 -4 95 0
42 -43 -44 45 17 1 -2 -3 4 69 0
42 -43 -44 45 17 1 -2 -3 -4 164 0
42 -43 -44 45 17 -1 2 3 4 174 0
42 -43 -44 45 17 -1 2 3 -4 144 0
42 -43 -44 45 17 -1 2 -3 4 126 0
42 -43 -44 45 17 -1 2 -3 -4 130 0
42 -43 -44 45 -17 1 2 3 4 91 0
42 -43 -44 45 -17 1 2 3 -4 76 0
42 -43 -44 45 -17 1 2 -3 4 158 0
42 -43 -44 45 -17 1 2 -3 -4 57 0
42 -43 -44 45 -17 1 -2 3 4 85 0
42 -43 -44 45 -17 1 -2 3 -4 108 0
42 -43 -44 45 -17 1 -2 -3 4 167 0
42 -43 -44 45 -17 1 -2 -3 -4 65 0
42 -43 -44 45 -17 -1 2 3 4 70 0
42 -43 -44 45 -17 -1 2 3 -4 58 0
42 -43 -44 45 -17 -1 2 -3 4 75 0
42 -43 -44 45 -17 -1 2 -3 -4 90 0
42 -43 -44 -45 17 1 2 3 4 87 0
42 -43 -44 -45 17 1 2 3 -4 72 0
42 -43 -44 -45 17 1 2 -3 4 88 0
42 -43 -44 -45 17 1 2 -3 -4 112 0
42 -43 -44 -45 17 1 -2 3 4 175 0
42 -43 -44 -45 17 1 -2 3 -4 95 0
42 -43 -44 -45 17 1 -2 -3 4 69 0
42 -43 -44 -45 17 1 -2 -3 -4 164 0
42 -43 -44 -45 17 -1 2 3 4 174 0
42 -43 -44 -45 17 -1 2 3 -4 144 0
42 -43 -44 -45 17 -1 2 -3 4 126 0
42 -43 -44 -45 17 -1 2 -3 -4 130 0
42 -43 -44 -45 -17 1 2 3 4 109 0
42 -43 -44 -45 -17 1 2 3 -4 76 0
42 -43 -44 -45 -17 1 2 -3 4 158 0
42 -43 -44 -45 -17 1 2 -3 -4 163 0
42 -43 -44 -45 -17 1 -2 3 4 74 0
42 -43 -44 -45 -17 1 -2 3 -4 96 0
42 -43 -44 -45 -17 1 -2 -3 4 64 0
42 -43 -44 -45 -17 1 -2 -3 -4 65 0
42 -43 -44 -45 -17 -1 2 3 4 111 0
42 -43 -44 -45 -17 -1 2 3 -4 58 0
42 -43 -44 -45 -17 -1 2 -3 4 131 0
42 -43 -44 -45 -17 -1 2 -3 -4 90 0
-42 43 44 45 17 1 2 3 4 87 0
-42 43 44 45 17 1 2 3 -4 72 0
-42 43 44 45 17 1 2 -3 4 88 0
-42 43 44 45 17 1 2 -3 -4 112 0
-42 43 44 45 17 1 -2 3 4 175 0
-42 43 44 45 17 1 -2 3 -4 95 0
-42 43 44 45 17 1 -2 -3 4 69 0
-42 43 44 45 17 1 -2 -3 -4 164 0
-42 43 44 45 17 -1 2 3 4 174 0
-42 43 44 45 17 -1 2 3 -4 144 0
-42 43 44 45 17 -1 2 -3 4 126 0
-42 43 44 45 17 -1 2 -3 -4 130 0
-42 43 44 45 -17 1 2 3 4 109 0
-42 43 44 45 -17 1 2 3 -4 76 0
-42 43 44 45 -17 1 2 -3 4 123 0
-42 43 44 45 -17 1 2 -3 -4 163 0
-42 43 44 45 -17 1 -2 3 4 136 0
-42 43 44 45 -17 1 -2 3 -4 139 0
-42 43 44 45 -17 1 -2 -3 4 64 0
-42 43 44 45 -17 1 -2 -3 -4 65 0
-42 43 44 45 -17 -1 2 3 4 111 0
-42 43 44 45 -17 -1 2 3 -4 58 0
-42 43 44 45 -17 -1 2 -3 4 131 0
-42 43 44 45 -17 -1 2 -3 -4 90 0
-42 43 44 -45 17 1 2 3 4 87 0
-42 43 44 -45 17 1 2 3 -4 72 0
-42 43 44 -45 17 1 2 -3 4 88 0
-42 43 44 -45 17 1 2 -3 -4 112 0
-42 43 44 -45 17 1 -2 3 4 175 0
-42 43 44 -45 17 1 -2 3 -4 95 0
-42 43 44 -45 17 1 -2 -3 4 69 0
-42 43 44 -45 17 1 -2 -3 -4 164 0
-42 43 44 -45 17 -1 2 3 4 174 0
-42 43 44 -45 17 -1 2 3 -4 144 0
-42 43 44 -45 17 -1 2 -3 4 126 0
-42 43 44 -45 17 -1 2 -3 -4 130 0
-42 43 44 -45 -17 1 2 3 4 109 0
-42 43 44 -45 -17 1 2 3 -4 76 0
-42 43 44 -45 -17 1 2 -3 4 123 0
-42 43 44 -45 -17 1 2 -3 -4 162 0
-42 43 44 -45 -17 1 -2 3 4 136 0
-42 43 44 -45 -17 1 -2 3 -4 96 0
-42 43 44 -45 -17 1 -2 -3 4 71 0
-42 43 44 -45 -17 1 -2 -3 -4 122 0
-42 43 44 -45 -17 -1 2 3 4 111 0
-42 43 44 -45 -17 -1 2 3 -4 58 0
-42 43 44 -45 -17 -1 2 -3 4 131 0
-42 43 44 -45 -17 -1 2 -3 -4 90 0
-42 43 -44 45 17 1 2 3 4 87 0
-42 43 -44 45 17 1 2 3 -4 72 0
-42 43 -44 45 17 1 2 -3 4 88 0
-42 43 -44 45 17 1 2 -3 -4 112 0
-42 43 -44 45 17 1 -2 3 4 175 0
-42 43 -44 45 17 1 -2 3 -4 95 0
-42 43 -44 45 17 1 -2 -3 4 69 0
-42 43 -44 45 17 1 -2 -3 -4 164 0
-42 43 -44 45 17 -1 2 3 4 174 0
-42 43 -44 45 17 -1 2 3 -4 144 0
-42 43 -44 45 17 -1 2 -3 4 126 0
-42 43 -44 45 17 -1 2 -3 -4 130 0
-42 43 -44 45 -17 1 2 3 4 109 0
-42 43 -44 45 -17 1 2 3 -4 161 0
-42 43 -44 45 -17 1 2 -3 4 123 0
-42 43 -44 45 -17 1 2 -3 -4 173 0
-42 43 -44 45 -17 1 -2 3 4 93 0
-42 43 -44 45 -17 1 -2 3 -4 139 0
-42 43 -44 45 -17 1 -2 -3 4 59 0
-42 43 -44 45 -17 1 -2 -3 -4 127 0
-42 43 -44 45 -17 -1 2 3 4 111 0
-42 43 -44 45 -17 -1 2 3 -4 58 0
-42 43 -44 45 -17 -1 2 -3 4 131 0
-42 43 -44 45 -17 -1 2 -3 -4 90 0
-42 43 -44 -45 17 1 2 3 4 87 0
-42 43 -44 -45 17 1 2 3 -4 72 0
-42 43 -44 -45 17 1 2 -3 4 88 0
-42 43 -44 -45 17 1 2 -3 -4 112 0
-42 43 -44 -45 17 1 -2 3 4 175 0
-42 43 -44 -45 17 1 -2 3 -4 95 0
-42 43 -44 -45 17 1 -2 -3 4 69 0
-42 43 -44 -45 17 1 -2 -3 -4 164 0
-42 43 -44 -45 17 -1 2 3 4 174 0
-42 43 -44 -45 17 -1 2 3 -4 144 0
-42 43 -44 -45 17 -1 2 -3 4 126 0
-42 43 -44 -45 17 -1 2 -3 -4 130 0
-42 43 -44 -45 -17 1 2 3 4 109 0
-42 43 -44 -45 -17 1 2 3 -4 76 0
-42 43 -44 -45 -17 1 2 -3 4 123 0
-42 43 -44 -45 -17 1 2 -3 -4 173 0
-42 43 -44 -45 -17 1 -2 3 4 104 0
-42 43 -44 -45 -17 1 -2 3 -4 124 0
-42 43 -44 -45 -17 1 -2 -3 4 59 0
-42 43 -44 -45 -17 1 -2 -3 -4 127 0
-42 43 -44 -45 -17 -1 2 3 4 111 0
-42 43 -44 -45 -17 -1 2 3 -4 58 0
-42 43 -44 -45 -17 -1 2 -3 4 131 0
-42 43 -44 -45 -17 -1 2 -3 -4 90 0
-42 -43 44 45 0
-42 -43 44 -45 0
-42 -43 -44 45 0
-42 -43 -44 -45 0
